p cnf 15 27
-15 14 -12 0
15 -14 -1 0
-15 -13 12 0
15 -13 7 0
-15 9 7 0
15 5 4 0
-14 9 3 0
14 -7 4 0
-14 5 2 0
-13 -11 8 0
13 -8 6 0
-13 7 -4 0
-12 11 -10 0
-12 11 7 0
-12 -8 -7 0
-12 -8 7 0
12 -8 -4 0
-12 -6 -3 0
-12 5 -4 0
11 9 -6 0
9 5 1 0
-9 -4 -2 0
8 7 -4 0
-8 5 4 0
-7 -4 -3 0
5 3 1 0
4 2 -1 0
